TYPE : Vertex Cover
DIMENSION: 33
EDGE_DATA_SECTION:
0 5
0 6
0 7
0 10
0 17
0 22
0 23
0 24
0 27
0 30
0 32
1 3
1 4
1 5
1 6
1 9
1 11
1 14
1 15
1 16
2 3
2 7
2 8
2 10
2 16
2 21
2 26
2 29
2 31
3 4
3 8
3 9
3 12
3 16
3 22
3 30
3 32
4 5
4 6
4 7
4 13
4 16
4 23
4 26
4 28
4 32
5 9
5 11
5 12
5 17
5 29
6 9
6 11
6 12
6 19
6 21
6 22
6 23
6 32
7 8
7 13
7 15
7 22
7 26
7 27
7 32
8 13
8 18
8 20
8 25
9 17
9 21
9 31
10 13
10 15
10 16
10 20
10 21
10 22
11 20
11 24
11 30
12 14
12 16
12 17
12 18
12 19
12 21
12 22
12 25
12 28
12 32
13 15
13 17
13 23
13 24
13 25
13 28
13 32
14 22
14 23
14 24
14 25
14 28
14 30
15 17
15 19
15 21
15 25
15 26
15 28
16 18
16 24
16 25
16 27
16 28
16 29
16 30
17 20
17 21
17 23
17 30
18 19
18 20
18 23
18 27
18 28
19 21
19 30
19 31
20 23
20 27
20 28
20 31
21 23
21 28
21 29
21 30
22 23
22 24
22 28
22 30
22 31
22 32
23 25
23 28
24 28
24 29
25 30
25 31
26 28
27 30
27 32
29 30
29 32
30 32
31 32
-1
VERTEX_DEGREE:
11.0 9.0 9.0 10.0 11.0 8.0 11.0 10.0 7.0 7.0 8.0 6.0 13.0 11.0 8.0 10.0 13.0 10.0 8.0 7.0 9.0 12.0 13.0 12.0 8.0 9.0 5.0 7.0 13.0 7.0 13.0 7.0 12.0
VERTEX_COVER:
0 1 2 4 5 8 9 11 12 13 15 16 19 20 21 22 23 24 25 26 27 28 30 32
EOF
